c WARNING: for repeatability, setting FPU to use double precision
d VARIABLES            72356        
d CONSTRAINTS          256404       
c ============================[ Problem Statistics ]=============================
c |                                                                             |
c |  Number of variables:         72356                                         |
c |  Number of clauses:          256404                                         |
c |  Parse time:                   0.04 s                                       |
c |                                                                             |
c ============================[ Search Statistics ]==============================
c | Conflicts |          ORIGINAL         |          LEARNT          | Progress |
c |           |    Vars  Clauses Literals |    Limit  Clauses Lit/Cl |          |
c ===============================================================================
c |       100 |   53084   206774   521051 |    75817      100     32 | 26.635 % |
c |       250 |   53084   206774   521051 |    83398      250     27 | 26.635 % |
c |       475 |   53084   206774   521051 |    91738      475     22 | 26.635 % |
c |       812 |   53084   206774   521051 |   100912      812     35 | 26.635 % |
c |      1318 |   53084   206774   521051 |   111003     1318     34 | 26.635 % |
c |      2077 |   53084   206774   521051 |   122104     2077     38 | 26.635 % |
c |      3216 |   53084   206774   521051 |   134314     3216     60 | 26.635 % |
c |      4924 |   53084   206774   521051 |   147746     4924     66 | 26.635 % |
c |      7486 |   53084   206774   521051 |   162520     7486     71 | 26.635 % |
c |     11330 |   53084   206774   521051 |   178772    11330     76 | 26.635 % |
c |     17096 |   53084   206774   521051 |   196650    17096     85 | 26.635 % |
c |     25745 |   53084   206774   521051 |   216315    25745     88 | 26.635 % |
c |     38719 |   53084   206774   521051 |   237946    38719     85 | 26.635 % |
c |     58180 |   53084   206774   521051 |   261741    58180     92 | 26.635 % |
c |     87372 |   53084   206774   521051 |   287915    87372    100 | 26.635 % |
c |    131161 |   53084   206774   521051 |   316706   131161     99 | 26.635 % |
c |    196845 |   53084   206774   521051 |   348377   196845     93 | 26.635 % |
c |    295371 |   53084   206774   521051 |   383215   295371     85 | 26.635 % |
c |    443160 |   53084   206774   521051 |   421536    67956     54 | 26.635 % |
c |    664843 |   52980   206358   520011 |   463690   256964     51 | 26.779 % |
c ===============================================================================
c restarts              : 1534
c conflicts             : 719690         (2887 /sec)
c decisions             : 1410083        (0.00 % random) (5657 /sec)
c propagations          : 624656330      (2506208 /sec)
c conflict literals     : 48392075       (45.95 % deleted)
d RESTARTS             1534
d FAILURES             719690       
d NODES                1410083      
d BACKTRACKS           1410083      
d PROPAGATIONS         624656330    
d NOGOODSIZE           67.24 
d MEMORY               262.00 
d TIME                 249.244 

s UNSATISFIABLE
